
Gurobi 9.5.1 (linux64) logging started Thu 09 Jun 2022 08:04:34 PM MST

Set parameter LogFile to value "/home/local/ASUAD/kmajd1/NNRepLayer_v2/demos/walking_example/dynamic_constraint/repair_net/logs/opt_log_6_9_2022_20_3_59.log"
Gurobi Optimizer version 9.5.1 build v9.5.1rc2 (linux64)
Thread count: 48 physical cores, 96 logical processors, using up to 32 threads
Optimize a model with 37077 rows, 22792 columns and 105173 nonzeros
Model fingerprint: 0x6c413738
Model has 136 quadratic objective terms
Variable types: 9832 continuous, 12960 integer (12960 binary)
Coefficient statistics:
  Matrix range     [7e-04, 5e+01]
  Objective range  [2e-02, 3e+00]
  QObjective range [1e-01, 2e+00]
  Bounds range     [4e-01, 5e+01]
  RHS range        [2e-04, 5e+01]
Presolve removed 22284 rows and 8862 columns
Presolve time: 0.15s
Presolved: 14793 rows, 13930 columns, 69568 nonzeros
Presolved model has 136 quadratic objective terms
Variable types: 9620 continuous, 4310 integer (4310 binary)
Root relaxation presolve removed 4310 rows and 4310 columns
Root relaxation presolved: 10483 rows, 9620 columns, 60948 nonzeros
Root relaxation presolved model has 136 quadratic objective terms


Root relaxation: objective 3.293354e+01, 11980 iterations, 1.10 seconds (3.08 work units)

    Nodes    |    Current Node    |     Objective Bounds      |     Work
 Expl Unexpl |  Obj  Depth IntInf | Incumbent    BestBd   Gap | It/Node Time

     0     0   32.93354    0  785          -   32.93354      -     -    3s
     0     0   32.93950    0  816          -   32.93950      -     -   10s
     0     0   32.93950    0  816          -   32.93950      -     -   10s
     0     0   32.93999    0  826          -   32.93999      -     -   11s
     0     0   32.93999    0  823          -   32.93999      -     -   11s
     0     0   32.94007    0  850          -   32.94007      -     -   12s
     0     0   32.94007    0  839          -   32.94007      -     -   12s
     0     0   32.94007    0  840          -   32.94007      -     -   13s
     0     0   32.94007    0  828          -   32.94007      -     -   13s
     0     0   32.94370    0  822          -   32.94370      -     -   15s
     0     0   32.94371    0  821          -   32.94371      -     -   15s
     0     0   32.94371    0  828          -   32.94371      -     -   16s
H    0     0                      77.3205582   32.94371  57.4%     -   25s
H    0     0                      77.1417917   32.94371  57.3%     -   26s
     0     2   32.94371    0  828   77.14179   32.94371  57.3%     -   26s
     7    16   32.96288    3  967   77.14179   32.94371  57.3%   792   31s
H   31    64                      77.0189651   32.94570  57.2%  1371   46s
H   32    64                      76.6586280   32.94570  57.0%  1386   46s
H   34    64                      76.5358826   32.94570  57.0%  1430   46s
H   42    64                      76.3622089   32.94570  56.9%  1575   46s
H   44    64                      75.9646039   32.94570  56.6%  1583   46s
H   56    64                      72.9886031   32.94606  54.9%  1682   46s
    63    96   32.96288    6 1061   72.98860   32.94606  54.9%  1789   50s
    95   128   32.96288    7 1057   72.98860   32.94606  54.9%  2019   86s
H  125   128                      72.5998570   32.94606  54.6%  1615   86s
H  159   192                      72.5512623   32.94606  54.6%  1303  104s
H  160   192                      72.5128828   32.94606  54.6%  1295  104s
H  184   192                      72.3540387   32.94606  54.5%  1142  104s

Cutting planes:
  Cover: 50
  Implied bound: 87
  Projected implied bound: 1
  Clique: 1
  MIR: 8940
  Flow cover: 5047
  Relax-and-lift: 146

Explored 191 nodes (231884 simplex iterations) in 104.11 seconds (224.88 work units)
Thread count was 32 (of 96 available processors)

Solution count 10: 72.354 72.5129 72.5513 ... 77.019

Solve interrupted
Best objective 7.235403867624e+01, best bound 3.294606135054e+01, gap 54.4655%
